20
1 0 54
2 0 41
2 1 68
3 0 86
3 1 76
3 2 59
4 0 11
4 1 67
4 2 60
4 3 82
5 0 35
5 1 43
5 2 3
5 3 70
5 4 57
6 0 84
6 1 31
6 2 94
6 3 97
6 4 69
6 5 94
7 0 70
7 1 64
7 2 52
7 3 23
7 4 79
7 5 68
7 6 18
8 0 93
8 1 1
8 2 66
8 3 20
8 4 88
8 5 47
8 6 86
8 7 36
9 0 58
9 1 44
9 2 4
9 3 76
9 4 10
9 5 14
9 6 60
9 7 32
9 8 76
10 0 60
10 1 32
10 2 48
10 3 55
10 4 42
10 5 9
10 6 62
10 7 14
10 8 3
10 9 36
11 0 33
11 1 94
11 2 84
11 3 17
11 4 67
11 5 66
11 6 46
11 7 99
11 8 6
11 9 29
11 10 64
12 0 74
12 1 24
12 2 33
12 3 87
12 4 71
12 5 72
12 6 91
12 7 62
12 8 34
12 9 48
12 10 95
12 11 71
13 0 89
13 1 90
13 2 51
13 3 36
13 4 61
13 5 10
13 6 20
13 7 79
13 8 98
13 9 36
13 10 93
13 11 49
13 12 94
14 0 8
14 1 69
14 2 48
14 3 30
14 4 54
14 5 3
14 6 32
14 7 88
14 8 49
14 9 34
14 10 50
14 11 76
14 12 26
14 13 25
15 0 54
15 1 92
15 2 87
15 3 66
15 4 1
15 5 17
15 6 41
15 7 26
15 8 23
15 9 92
15 10 70
15 11 47
15 12 34
15 13 52
15 14 86
16 0 30
16 1 100
16 2 88
16 3 48
16 4 46
16 5 99
16 6 85
16 7 29
16 8 67
16 9 41
16 10 47
16 11 83
16 12 18
16 13 26
16 14 4
16 15 25
17 0 80
17 1 52
17 2 78
17 3 26
17 4 93
17 5 17
17 6 23
17 7 13
17 8 54
17 9 73
17 10 95
17 11 91
17 12 99
17 13 4
17 14 13
17 15 46
17 16 7
18 0 71
18 1 94
18 2 98
18 3 82
18 4 25
18 5 100
18 6 100
18 7 90
18 8 74
18 9 16
18 10 16
18 11 59
18 12 79
18 13 51
18 14 17
18 15 63
18 16 95
18 17 32
19 0 73
19 1 66
19 2 93
19 3 23
19 4 38
19 5 74
19 6 14
19 7 8
19 8 62
19 9 40
19 10 66
19 11 5
19 12 57
19 13 8
19 14 43
19 15 97
19 16 18
19 17 94
19 18 30
